Route #1: 92 9 55
Route #2: 71 62 99 89 98
Route #3: 76 16 69 74
Route #4: 66 84 90 13
Route #5: 1 54 68
Route #6: 57 72 65 49 6 37
Route #7: 81 51 83
Route #8: 10 25 39
Route #9: 14 28 42 78
Route #10: 59 60 82
Route #11: 77 67 88
Route #12: 38 26 47 48 96
Route #13: 4 18
Route #14: 22 41 20
Route #15: 56 94 3
Route #16: 15 70 86
Route #17: 27 97 19
Route #18: 75 93
Route #19: 100 52 91
Route #20: 7 2 45 43 29 36 87 64 34
Route #21: 17 80
Route #22: 40 63 44 58
Route #23: 23 61 21
Route #24: 35 46 31
Route #25: 79 11 85 30
Route #26: 32 33 53 73 95 24
Route #27: 5 12
Route #28: 8 50
Cost 28941.98442517857